186
185
184
178
184
183
182
181
180
179
178
177
175
176
175
174
173
172
172
171
170
169
168
167
167
166
165
164
163
162
161
160
160
159
159
158
157
156
155
155
154
154
153
152
152
151
150
150
149
148
147
146
145
144
143
142
142
141
140
139
139
138
137
136
135
134
134
133
132
132
131
130
129
129
128
127
126
126
125
124
123
122
123
122
121
120
120
119
118
118
116
117
116
115
115
114
113
113
112
112
111
110
109
107
108
108
107
106
106
105
105
104
104
103
102
101
100
100
99
98
97
96
95
94
94
93
91
92
91
90
89
88
87
86
85
85
84
83
83
82
82
81
80
79
78
77
77
75
76
75
74
73
72
72
71
71
69
70
69
68
67
66
64
65
64
63
61
63
62
61
60
60
58
59
58
57
56
55
54
54
53
52
51
50
51
50
49
48
47
46
45
44
43
43
42
41
40
39
38
38
37
36
35
35
34
34
33
32
30
31
31
30
29
28
27
26
25
22
24
23
22
21
20
18
19
18
17
15
16
15
14
13
12
13
12
11
10
9
9
8
7
6
5
5
4
3
3
2
1
0
0